language ESSENCE' 1.0
letting lastdx=107
letting cage be [
[31,3,4,4,4,4,3,5,3,0,0],
[39,12,14,12,13,13,13,0,0, 0,0],
[26,1,2,2,2,0,0, 0,0, 0,0],
[13,7,5,8,5,0,0, 0,0, 0,0],
[5,13,8,0,0, 0,0, 0,0, 0,0],
[17,16,1,16,2,0,0, 0,0, 0,0],
[39,2,8,2,9,3,9,3,10,4,10],
[12,2,10,0,0, 0,0, 0,0, 0,0],
[42,9,2,9,3,9,4,0,0, 0,0],
[20,15,3,16,3,16,4,0,0, 0,0],
[2,9,11,0,0, 0,0, 0,0, 0,0],
[11,14,2,0,0, 0,0, 0,0, 0,0],
[4,8,11,8,12,0,0, 0,0, 0,0],
[9,8,14,0,0, 0,0, 0,0, 0,0],
[19,5,12,5,13,5,14,5,15,0,0],
[5,9,12,0,0, 0,0, 0,0, 0,0],
[53,5,4,5,5,4,5,3,5,3,6],
[39,2,7,3,7,3,8,4,8,5,8],
[13,7,16,0,0, 0,0, 0,0, 0,0],
[19,14,6,15,6,0,0, 0,0, 0,0],
[10,5,6,0,0, 0,0, 0,0, 0,0],
[46,8,7,8,6,9,6,9,7,10,7],
[26,2,11,2,12,2,13,0,0, 0,0],
[7,15,15,0,0, 0,0, 0,0, 0,0],
[58,7,12,7,13,6,13,6,12,6,11],
[11,3,14,0,0, 0,0, 0,0, 0,0],
[14,9,10,0,0, 0,0, 0,0, 0,0],
[45,2,4,2,3,1,3,1,4,1,5],
[23,6,4,6,3,7,3,7,2,8,2],
[2,8,9,0,0, 0,0, 0,0, 0,0],
[45,16,13,16,12,15,12,14,12,0,0],
[13,8,16,9,16,0,0, 0,0, 0,0],
[14,14,11,0,0, 0,0, 0,0, 0,0],
[9,3,1,0,0, 0,0, 0,0, 0,0],
[2,7,7,0,0, 0,0, 0,0, 0,0],
[16,10,15,0,0, 0,0, 0,0, 0,0],
[14,13,16,0,0, 0,0, 0,0, 0,0],
[48,10,3,10,4,11,4,12,4,12,5],
[22,12,10,13,10,13,11,13,12,0,0],
[20,10,9,10,10,10,11,0,0, 0,0],
[4,1,11,0,0, 0,0, 0,0, 0,0],
[12,13,3,0,0, 0,0, 0,0, 0,0],
[18,15,1,15,2,0,0, 0,0, 0,0],
[9,9,9,0,0, 0,0, 0,0, 0,0],
[48,7,8,8,8,9,8,10,8,0,0],
[6,11,10,0,0, 0,0, 0,0, 0,0],
[25,10,5,9,5,0,0, 0,0, 0,0],
[28,9,15,9,14,9,13,8,13,0,0],
[8,1,7,0,0, 0,0, 0,0, 0,0],
[3,14,1,0,0, 0,0, 0,0, 0,0],
[8,13,4,0,0, 0,0, 0,0, 0,0],
[9,16,10,0,0, 0,0, 0,0, 0,0],
[10,15,16,0,0, 0,0, 0,0, 0,0],
[36,14,7,13,7,13,6,13,5,0,0],
[23,1,9,1,8,1,10,0,0, 0,0],
[10,12,6,12,7,0,0, 0,0, 0,0],
[49,4,2,4,1,5,1,5,2,0,0],
[13,3,13,0,0, 0,0, 0,0, 0,0],
[36,8,3,8,4,7,4,0,0, 0,0],
[10,3,11,0,0, 0,0, 0,0, 0,0],
[29,14,15,14,16,0,0, 0,0, 0,0],
[2,12,15,0,0, 0,0, 0,0, 0,0],
[41,7,10,7,11,8,10,0,0, 0,0],
[10,10,14,0,0, 0,0, 0,0, 0,0],
[10,3,2,3,3,0,0, 0,0, 0,0],
[13,13,14,13,15,0,0, 0,0, 0,0],
[31,2,16,2,15,1,15,1,16,0,0],
[7,5,10,0,0, 0,0, 0,0, 0,0],
[21,4,7,4,6,0,0, 0,0, 0,0],
[8,12,16,0,0, 0,0, 0,0, 0,0],
[23,12,2,12,3,11,3,0,0, 0,0],
[7,11,1,0,0, 0,0, 0,0, 0,0],
[27,6,7,5,7,6,8,0,0, 0,0],
[6,10,2,11,2,0,0, 0,0, 0,0],
[22,2,6,1,6,2,5,0,0, 0,0],
[9,15,7,0,0, 0,0, 0,0, 0,0],
[25,15,4,14,4,14,3,0,0, 0,0],
[2,15,13,0,0, 0,0, 0,0, 0,0],
[36,12,1,13,1,13,2,0,0, 0,0],
[21,7,15,8,15,0,0, 0,0, 0,0],
[45,16,7,16,6,16,5,15,5,14,5],
[26,11,9,11,8,0,0, 0,0, 0,0],
[58,5,9,4,9,6,9,6,10,7,9],
[6,12,8,0,0, 0,0, 0,0, 0,0],
[33,4,16,4,15,4,14,0,0, 0,0],
[9,14,14,14,13,0,0, 0,0, 0,0],
[6,7,6,0,0, 0,0, 0,0, 0,0],
[38,14,8,14,9,15,9,15,8,0,0],
[18,1,1,2,1,0,0, 0,0, 0,0],
[14,1,12,0,0, 0,0, 0,0, 0,0],
[24,1,13,1,14,2,14,0,0, 0,0],
[6,3,15,3,16,0,0, 0,0, 0,0],
[2,5,16,0,0, 0,0, 0,0, 0,0],
[28,6,1,6,2,7,1,8,1,0,0],
[8,6,5,6,6,0,0, 0,0, 0,0],
[9,6,14,7,14,0,0, 0,0, 0,0],
[27,6,15,6,16,0,0, 0,0, 0,0],
[7,9,1,10,1,0,0, 0,0, 0,0],
[26,10,6,11,6,11,5,11,7,0,0],
[24,10,12,10,13,0,0, 0,0, 0,0],
[31,10,16,11,16,11,15,11,14,0,0],
[20,11,11,12,11,0,0, 0,0, 0,0],
[19,12,9,13,9,0,0, 0,0, 0,0],
[33,14,10,15,10,15,11,16,11,0,0],
[15,15,14,0,0, 0,0, 0,0, 0,0],
[10,16,8,16,9,0,0, 0,0, 0,0],
[5,16,14,0,0, 0,0, 0,0, 0,0],
[9,16,15,16,16,0,0, 0,0, 0,0]
]
